2 100 854
5 5 2 5 2 0 3 1 6 1
3 1
8 9 9
7
0 40.0 50.0 0.0 0.0 0 240
2 25.0 85.0 10.0 20.0 125 191 68 0 1 1 0 0 0 0 1 0 0
3 22.0 75.0 10.0 30.0 32 97 45 0 0 0 0 0 0 0 1 0 0
4 22.0 85.0 10.0 10.0 101 146 51 1 0 1 0 0 1 0 1 1 0
5 20.0 80.0 10.0 40.0 71 193 86 0 0 0 0 0 0 1 0 0 0
6 20.0 85.0 10.0 20.0 40 113 21 0 0 0 1 0 0 0 0 0 1
7 18.0 75.0 10.0 20.0 55 164 77 0 0 1 0 0 0 0 0 0 0
8 15.0 75.0 10.0 20.0 69 118 46 0 0 0 1 0 0 1 1 0 0
9 15.0 80.0 10.0 10.0 56 155 12 0 0 0 1 0 1 0 0 0 0
10 10.0 35.0 10.0 20.0 51 160 76 0 1 0 1 0 0 0 1 0 0
11 10.0 40.0 10.0 30.0 90 177 17 0 0 0 1 0 0 1 0 1 0
12 8.0 40.0 10.0 40.0 33 152 4 0 0 0 0 0 0 0 0 1 1
13 8.0 45.0 10.0 20.0 49 108 15 0 1 0 0 0 0 0 0 0 0
14 5.0 35.0 10.0 10.0 62 191 75 1 0 0 0 0 0 0 1 1 1
15 5.0 45.0 10.0 10.0 35 117 25 0 0 1 0 0 0 0 0 0 0
16 2.0 40.0 10.0 20.0 39 161 72 0 0 0 0 0 0 0 1 0 1
17 0.0 40.0 10.0 20.0 59 114 88 1 0 0 0 0 0 0 1 0 0
18 0.0 45.0 10.0 20.0 60 189 41 0 0 1 0 0 0 0 0 1 1
19 44.0 5.0 10.0 20.0 79 124 21 0 0 1 0 0 0 0 1 0 0
20 42.0 10.0 10.0 40.0 58 115 76 0 0 0 0 0 1 0 0 0 0
21 42.0 15.0 10.0 10.0 111 162 10 0 1 0 0 1 0 0 0 0 0
22 40.0 5.0 10.0 10.0 52 111 57 0 0 0 0 0 1 1 0 0 0
23 40.0 15.0 10.0 40.0 55 158 2 0 1 0 0 0 0 0 0 0 0
24 38.0 5.0 10.0 30.0 45 164 86 0 0 0 0 1 0 1 1 0 0
25 38.0 15.0 10.0 10.0 128 194 94 0 0 1 0 0 1 0 1 0 1
26 35.0 5.0 10.0 20.0 54 184 44 0 1 1 0 0 0 0 0 0 0
27 95.0 30.0 10.0 30.0 105 154 94 0 1 0 0 0 1 0 1 1 0
28 95.0 35.0 10.0 20.0 57 172 70 0 0 0 0 0 0 0 1 0 0
29 92.0 30.0 10.0 10.0 55 120 85 0 0 0 0 0 1 1 0 0 0
30 90.0 35.0 10.0 10.0 52 112 28 0 0 0 0 0 1 0 0 0 0
31 88.0 30.0 10.0 10.0 52 159 51 0 1 0 0 0 1 0 0 0 0
32 88.0 35.0 10.0 20.0 50 110 25 0 0 0 0 1 0 0 0 0 0
33 87.0 30.0 10.0 10.0 116 175 44 0 1 0 0 0 1 1 0 1 1
34 85.0 25.0 10.0 10.0 51 178 52 0 0 0 0 0 0 0 0 0 1
35 85.0 35.0 10.0 30.0 100 151 55 0 0 0 0 0 0 0 0 0 1
36 67.0 85.0 10.0 20.0 61 185 63 0 0 0 0 0 0 0 0 1 0
37 65.0 85.0 10.0 40.0 43 186 51 0 0 0 1 1 0 0 0 0 0
38 65.0 82.0 10.0 10.0 113 164 96 0 0 0 1 0 1 0 0 0 0
39 62.0 80.0 10.0 30.0 37 148 31 0 0 1 0 0 0 0 0 0 0
40 60.0 80.0 10.0 10.0 36 191 75 1 0 0 1 0 0 0 0 0 0
41 60.0 85.0 10.0 30.0 50 149 19 0 1 0 0 0 0 1 0 1 0
42 58.0 75.0 10.0 20.0 48 165 65 1 0 0 0 0 0 0 1 0 0
43 55.0 80.0 10.0 10.0 33 166 54 1 1 0 0 0 0 0 0 0 0
44 55.0 85.0 10.0 20.0 117 168 47 0 0 0 0 1 0 0 0 0 0
45 55.0 82.0 10.0 10.0 35 148 96 0 0 0 0 1 0 0 1 0 0
46 20.0 82.0 10.0 10.0 37 177 99 0 1 0 1 0 0 0 0 1 1
47 18.0 80.0 10.0 10.0 98 157 90 0 0 0 0 0 0 0 0 0 1
48 2.0 45.0 10.0 10.0 38 109 31 0 0 0 0 0 0 1 0 0 0
49 42.0 5.0 10.0 10.0 120 184 27 0 1 0 0 0 1 0 0 0 1
50 42.0 12.0 10.0 10.0 79 158 82 0 0 0 0 1 0 0 0 0 0
51 72.0 35.0 10.0 30.0 104 157 78 0 1 0 1 1 1 0 0 0 0
52 55.0 20.0 10.0 19.0 69 126 34 1 0 0 1 0 1 0 0 0 1
53 25.0 30.0 10.0 3.0 36 97 13 0 0 1 0 0 0 1 0 0 1
54 20.0 50.0 10.0 5.0 57 154 15 0 0 0 0 0 1 0 0 0 0
55 55.0 60.0 10.0 16.0 127 180 31 0 0 0 0 0 1 0 0 0 0
56 30.0 60.0 10.0 16.0 95 214 28 0 0 0 1 0 0 0 0 0 0
57 50.0 35.0 10.0 19.0 88 201 36 0 0 0 1 0 0 0 0 0 0
58 30.0 25.0 10.0 23.0 82 139 80 0 1 0 0 0 0 0 1 0 0
59 15.0 10.0 10.0 20.0 56 182 45 0 0 1 1 1 0 0 1 0 0
60 10.0 20.0 10.0 19.0 42 125 31 0 0 0 0 0 1 0 0 0 0
61 15.0 60.0 10.0 17.0 137 202 34 0 0 1 0 1 0 0 1 1 0
62 45.0 65.0 10.0 9.0 55 106 19 0 0 0 1 1 0 1 0 0 0
63 65.0 35.0 10.0 3.0 29 158 96 1 0 0 0 1 0 1 0 0 0
64 65.0 20.0 10.0 6.0 39 108 49 0 0 0 0 0 0 1 0 1 0
65 45.0 30.0 10.0 17.0 20 139 53 1 1 0 0 0 0 1 0 0 0
66 35.0 40.0 10.0 16.0 11 140 9 0 1 0 0 0 0 0 0 0 0
67 41.0 37.0 10.0 16.0 92 203 73 0 0 0 0 0 1 0 0 0 0
68 64.0 42.0 10.0 9.0 28 141 40 0 0 0 1 0 0 0 0 0 0
69 40.0 60.0 10.0 21.0 100 217 30 1 0 0 0 0 0 0 0 1 0
70 31.0 52.0 10.0 27.0 9 134 26 1 0 0 0 0 0 0 0 0 0
71 35.0 69.0 10.0 23.0 60 210 63 0 1 0 0 0 0 0 0 1 0
72 65.0 55.0 10.0 14.0 52 107 69 0 0 0 0 0 1 0 0 0 1
73 63.0 65.0 10.0 8.0 27 101 99 0 0 0 0 0 1 0 0 0 0
74 2.0 60.0 10.0 5.0 65 118 73 1 1 0 1 0 0 0 0 0 1
75 20.0 20.0 10.0 8.0 72 193 32 1 0 0 1 1 0 1 0 0 0
76 5.0 5.0 10.0 16.0 60 117 47 0 1 0 0 0 1 0 0 0 0
77 60.0 12.0 10.0 31.0 42 143 63 0 1 0 0 0 0 0 0 0 0
78 23.0 3.0 10.0 7.0 52 180 81 0 0 0 0 0 1 0 0 0 0
79 8.0 56.0 10.0 27.0 46 163 9 0 0 0 0 1 0 0 0 0 0
80 6.0 68.0 10.0 30.0 54 153 60 0 1 0 0 0 0 0 0 0 0
81 47.0 47.0 10.0 13.0 97 222 63 1 0 0 0 0 0 0 0 1 0
82 49.0 58.0 10.0 10.0 80 121 52 1 1 1 1 0 0 0 0 0 0
83 27.0 43.0 10.0 9.0 26 87 77 0 0 0 0 1 1 1 1 0 0
84 37.0 31.0 10.0 14.0 19 87 82 0 0 0 0 0 0 0 0 1 0
85 57.0 29.0 10.0 18.0 62 159 28 0 0 0 0 1 1 0 0 0 0
86 63.0 23.0 10.0 2.0 76 127 85 0 0 0 1 1 0 0 0 0 0
87 21.0 24.0 10.0 28.0 77 126 78 1 0 0 0 0 0 0 0 0 0
88 12.0 24.0 10.0 13.0 68 141 72 1 1 0 0 0 0 0 0 0 0
89 24.0 58.0 10.0 19.0 24 139 25 0 0 0 1 0 0 0 0 0 0
90 67.0 5.0 10.0 25.0 105 177 53 0 0 0 0 0 1 0 0 0 0
91 37.0 47.0 10.0 6.0 74 127 65 0 0 0 0 0 1 0 0 0 0
92 49.0 42.0 10.0 13.0 151 212 64 0 0 1 1 1 0 0 0 0 0
93 53.0 43.0 10.0 14.0 14 155 12 0 0 0 0 0 0 1 0 1 1
94 61.0 52.0 10.0 3.0 69 208 91 0 1 0 0 0 0 0 0 1 1
95 57.0 48.0 10.0 23.0 86 133 34 1 0 0 0 0 0 1 0 0 0
96 56.0 37.0 10.0 6.0 20 84 81 0 0 0 0 1 0 0 0 0 0
97 55.0 54.0 10.0 26.0 121 172 25 0 0 0 0 0 1 0 0 0 0
98 4.0 18.0 10.0 35.0 112 157 68 0 0 1 0 0 0 1 0 0 0
99 26.0 52.0 10.0 9.0 30 91 97 0 0 0 0 0 1 0 0 0 0
100 26.0 35.0 10.0 15.0 37 146 58 1 0 0 0 0 0 0 0 0 0
101 31.0 67.0 10.0 3.0 66 210 34 0 0 0 0 0 0 0 1 0 0